c User generated cnf file
p cnf 12 44
8 -12 9 0 
7 -10 8 0 
12 -1 9 0 
-11 1 10 0 
9 -11 12 0 
5 -5 1 0 
1 11 -4 0 
2 -9 12 0 
6 -8 12 0 
1 -6 11 0 
11 -1 2 0 
7 11 -1 0 
6 -3 7 0 
9 11 -8 0 
-2 8 10 0 
8 -11 9 0 
6 7 -11 0 
11 -2 9 0 
8 -2 9 0 
1 3 -6 0 
-8 1 7 0 
5 3 -2 0 
6 8 -7 0 
3 2 -8 0 
4 11 -3 0 
12 4 -8 0 
9 -10 5 0 
-9 9 11 0 
2 10 -4 0 
2 -5 5 0 
-6 2 3 0 
10 -6 8 0 
6 6 -10 0 
-5 2 12 0 
2 7 -11 0 
12 4 -10 0 
12 -7 7 0 
10 -5 2 0 
-11 10 4 0 
-12 4 10 0 
11 4 -11 0 
10 -10 12 0 
1 8 -11 0 
8 -8 1 0 
